s td 33 8 40
b 1 4 20
b 2 11 26
b 3 20 31
b 4 17 33
b 5 2 37
b 6 12 38
b 7 14 39
b 8 14 22
b 9 5 7 30
b 10 7 15 30
b 11 15 27 30
b 12 8 18 19
b 13 2 12 36
b 14 15 30 32
b 15 9 18 19
b 16 1 11 22 23
b 17 25 34 40
b 18 3 29 36
b 19 2 30 32 36
b 20 1 10 11 23
b 21 3 6 13 21
b 22 2 3 6 10 21
b 23 1 2 3 10 17 24 28 40
b 24 2 3 6 10 24
b 25 2 3 10 17 24 28 36 40
b 26 2 3 10 18 28 36 40
b 27 2 3 9 10 18 28
b 28 1 10 17 23 24 28 40
b 29 17 20 23 40
b 30 17 23 28 34 40
b 31 1 2 3 24 28 35
b 32 2 3 24 32 36
b 33 16
1 29
1 33
2 20
3 29
4 23
5 23
6 13
7 8
8 16
9 10
10 14
11 14
12 15
13 25
14 19
15 27
16 20
17 30
18 25
19 32
20 28
21 22
22 24
23 24
23 25
23 28
23 31
25 32
25 26
26 27
28 29
28 30
